s td 99 12 116
b 1 27 30 32
b 2 28 29 31
b 3 7 29 31
b 4 8 30 32
b 5 7 31 93
b 6 8 32 94
b 7 33 36 38
b 8 34 35 37
b 9 35 37 53
b 10 36 38 54
b 11 37 53 81
b 12 38 54 82
b 13 105 108 110
b 14 106 107 109
b 15 99 107 109
b 16 100 108 110
b 17 83 99 109
b 18 84 100 110
b 19 111 114 116
b 20 112 113 115
b 21 43 113 115
b 22 44 114 116
b 23 9 43 115
b 24 10 44 116
b 25 1 7 8 9 10 23 25 48 71 72 103 104
b 26 3 7 8 9 10 23
b 27 2 3 7 10 23
b 28 2 3 5 23
b 29 1 6 7 8 9 23 25 48 71 72 103 104
b 30 4 6 7 9
b 31 6 7 8 23 25 48 71 72 94 103 104
b 32 6 7 23 25 48 71 72 93 94 103 104
b 33 6 23 25 48 71 72 90 93 94 103 104
b 34 6 23 25 48 71 72 89 90 93 94 103
b 35 6 23 25 26 48 71 72 89 90 93 94
b 36 6 23 24 25 26 71 72 89 90 93 94
b 37 22 23 24 25 26 71 72 89 90 93 94
b 38 21 22 23 24 25 26 71 89 90 93 94
b 39 20 21 22 23 24 25 26 89 90 93 94
b 40 11 20 22 24 26
b 41 14 20 21 23 26
b 42 16 20 21 24 25
b 43 17 20 22 23 25
b 44 20 89 90 92 93 94
b 45 85 90 92 94
b 46 87 89 92 93
b 47 21 22 23 24 25 26 89 90 91 93 94
b 48 19 21 22 23 24 25 26 91
b 49 12 19 21 24 26
b 50 13 19 22 23 26
b 51 15 19 22 24 25
b 52 18 19 21 23 25
b 53 86 89 91 94
b 54 88 90 91 93
b 55 9 10 25 48 71 72 73 74 81 82 103 104
b 56 9 10 25 48 58 73 74 81 82
b 57 9 10 25 48 57 58 73 81 82
b 58 9 10 25 48 54 57 58 81 82
b 59 9 10 25 48 53 54 57 58 81
b 60 9 10 25 47 48 53 54 57 58
b 61 9 10 44 47 48 53 54 57 58
b 62 9 43 44 47 48 53 54 57 58
b 63 43 44 47 48 53 54 56 57 58
b 64 41 43 44 47 48 56
b 65 39 41 44 48 56
b 66 39 41 46 56
b 67 49 54 56 58
b 68 51 53 56 57
b 69 40 43 44 47 48 53 54 57 58
b 70 40 44 47 50 53 54 57 58
b 71 40 42 44 47 50 54 57
b 72 40 42 45 50 54 57
b 73 45 50 54 55 57
b 74 52 54 55 57
b 75 69 70 71 72 73 74 81 82 83 84 103 104
b 76 69 70 71 72 73 74 78 81 82 83 84
b 77 69 70 71 72 73 74 75 78 82 84
b 78 69 70 71 72 73 74 75 78 80
b 79 68 69 70 71 72 73 74 80
b 80 59 68 70 72 74
b 81 62 68 69 71 74
b 82 64 68 69 72 73
b 83 65 68 70 71 73
b 84 69 70 71 72 73 74 77 81 82 83 84
b 85 69 70 71 72 73 74 76 77 81 84
b 86 69 70 71 72 73 74 76 77 79
b 87 67 69 70 71 72 73 74 79
b 88 60 67 69 72 74
b 89 61 67 70 71 74
b 90 63 67 70 72 73
b 91 66 67 69 71 73
b 92 69 70 83 84 100 103 104
b 93 69 70 83 99 100 103 104
b 94 70 97 99 100 103 104
b 95 70 95 97 100 104
b 96 70 95 97 102
b 97 69 96 99 100 103 104
b 98 69 96 100 101 103
b 99 98 100 101 103
1 4
2 3
3 5
4 6
5 32
6 31
7 10
8 9
9 11
10 12
11 59
12 58
13 16
14 15
15 17
16 18
17 93
18 92
19 22
20 21
21 23
22 24
23 62
24 61
25 26
25 29
25 55
26 27
27 28
29 30
29 31
31 32
32 33
33 34
34 35
35 36
36 37
37 38
38 39
38 47
39 40
39 41
39 42
39 43
39 44
44 45
44 46
47 48
47 53
47 54
48 49
48 50
48 51
48 52
55 56
55 75
56 57
57 58
58 59
59 60
60 61
61 62
62 63
62 69
63 64
63 67
63 68
64 65
65 66
69 70
70 71
71 72
72 73
73 74
75 76
75 84
75 92
76 77
77 78
78 79
79 80
79 81
79 82
79 83
84 85
85 86
86 87
87 88
87 89
87 90
87 91
92 93
93 94
93 97
94 95
95 96
97 98
98 99
